(set-logic QF_S)
(declare-fun var0 () String)
(declare-fun var1 () String)
(declare-fun var2 () String)
(declare-fun var3 () String)
(declare-fun var4 () Int)
(assert (str.prefixof (str.replace var0 "gQ" var1) (str.replace var2 var3 var1)))
(assert (str.contains (str.at var2 var4) (str.substr "mC0rfT1D" (str.len (str.at var3 var4)) (str.len (str.replace var2 var0 var0)))))
(assert (str.prefixof var3 var1))
(assert (str.prefixof var1 var0))
(check-sat)